nK = 1148;
nT = 4;
nI = 7;
L = 29;
TT = 252;
np = 1;
nc = 3;
b = [66, 62, 35, 69, 64, 70, 29];
d = [146, 104, 81, 105, 133, 108, 133];
m = [1.4, 1.4, 2.2, 2.4, 1.6, 2, 2.3];
pt = [0.28, 0.34, 0.21, 0.22];
st = [14.28, 16.32, 10.92, 10.78];
arc = {<1, 0, 1, 1, 0, 0, 0, [1, 1, 1, 1]>, <2, 1, 2, 1, 0, 0, 0, [1, 1, 1, 1]>, <3, 2, 3, 1, 0, 0, 0, [1, 1, 1, 1]>, <4, 3, 4, 1, 0, 0, 0, [1, 1, 1, 1]>, <5, 4, 5, 1, 0, 0, 0, [1, 1, 1, 1]>, <6, 5, 6, 1, 0, 0, 0, [1, 1, 1, 1]>, <7, 6, 7, 1, 0, 0, 0, [1, 1, 1, 1]>, <8, 7, 8, 1, 0, 0, 0, [1, 1, 1, 1]>, <9, 8, 9, 1, 0, 0, 0, [1, 1, 1, 1]>, <10, 9, 10, 1, 0, 0, 0, [1, 1, 1, 1]>, <11, 10, 11, 1, 0, 0, 0, [1, 1, 1, 1]>, <12, 11, 12, 1, 0, 0, 0, [1, 1, 1, 1]>, <13, 12, 13, 1, 0, 0, 0, [1, 1, 1, 1]>, <14, 13, 14, 1, 0, 0, 0, [1, 1, 1, 1]>, <15, 14, 15, 1, 0, 0, 0, [1, 1, 1, 1]>, <16, 15, 16, 1, 0, 0, 0, [1, 1, 1, 1]>, <17, 16, 17, 1, 0, 0, 0, [1, 1, 1, 1]>, <18, 17, 18, 1, 0, 0, 0, [1, 1, 1, 1]>, <19, 18, 19, 1, 0, 0, 0, [1, 1, 1, 1]>, <20, 19, 20, 1, 0, 0, 0, [1, 1, 1, 1]>, <21, 20, 21, 1, 0, 0, 0, [1, 1, 1, 1]>, <22, 21, 22, 1, 0, 0, 0, [1, 1, 1, 1]>, <23, 22, 23, 1, 0, 0, 0, [1, 1, 1, 1]>, <24, 23, 24, 1, 0, 0, 0, [1, 1, 1, 1]>, <25, 24, 25, 1, 0, 0, 0, [1, 1, 1, 1]>, <26, 25, 26, 1, 0, 0, 0, [1, 1, 1, 1]>, <27, 26, 27, 1, 0, 0, 0, [1, 1, 1, 1]>, <28, 27, 28, 1, 0, 0, 0, [1, 1, 1, 1]>, <29, 28, 29, 1, 0, 0, 0, [1, 1, 1, 1]>, <30, 0, 16, 16, 1, 1, 0, [1, 0, 0, 1]>, <31, 1, 17, 16, 1, 1, 0, [1, 0, 0, 1]>, <32, 2, 18, 16, 1, 1, 0, [1, 0, 0, 1]>, <33, 3, 19, 16, 1, 1, 0, [1, 0, 0, 1]>, <34, 4, 20, 16, 1, 1, 0, [1, 0, 0, 1]>, <35, 5, 21, 16, 1, 1, 0, [1, 0, 0, 1]>, <36, 6, 22, 16, 1, 1, 0, [1, 0, 0, 1]>, <37, 7, 23, 16, 1, 1, 0, [1, 0, 0, 1]>, <38, 8, 24, 16, 1, 1, 0, [1, 0, 0, 1]>, <39, 9, 25, 16, 1, 1, 0, [1, 0, 0, 1]>, <40, 10, 26, 16, 1, 1, 0, [1, 0, 0, 1]>, <41, 11, 27, 16, 1, 1, 0, [1, 0, 0, 1]>, <42, 12, 28, 16, 1, 1, 0, [1, 0, 0, 1]>, <43, 13, 29, 16, 1, 1, 0, [1, 0, 0, 1]>, <44, 0, 14, 14, 2, 0, 1, [1, 1, 0, 0]>, <45, 1, 15, 14, 2, 0, 1, [1, 1, 0, 0]>, <46, 2, 16, 14, 2, 0, 1, [1, 1, 0, 0]>, <47, 3, 17, 14, 2, 0, 1, [1, 1, 0, 0]>, <48, 4, 18, 14, 2, 0, 1, [1, 1, 0, 0]>, <49, 5, 19, 14, 2, 0, 1, [1, 1, 0, 0]>, <50, 6, 20, 14, 2, 0, 1, [1, 1, 0, 0]>, <51, 7, 21, 14, 2, 0, 1, [1, 1, 0, 0]>, <52, 8, 22, 14, 2, 0, 1, [1, 1, 0, 0]>, <53, 9, 23, 14, 2, 0, 1, [1, 1, 0, 0]>, <54, 10, 24, 14, 2, 0, 1, [1, 1, 0, 0]>, <55, 11, 25, 14, 2, 0, 1, [1, 1, 0, 0]>, <56, 12, 26, 14, 2, 0, 1, [1, 1, 0, 0]>, <57, 13, 27, 14, 2, 0, 1, [1, 1, 0, 0]>, <58, 14, 28, 14, 2, 0, 1, [1, 1, 0, 0]>, <59, 15, 29, 14, 2, 0, 1, [1, 1, 0, 0]>, <60, 0, 16, 16, 3, 0, 0, [1, 1, 0, 0]>, <61, 1, 17, 16, 3, 0, 0, [1, 1, 0, 0]>, <62, 2, 18, 16, 3, 0, 0, [1, 1, 0, 0]>, <63, 3, 19, 16, 3, 0, 0, [1, 1, 0, 0]>, <64, 4, 20, 16, 3, 0, 0, [1, 1, 0, 0]>, <65, 5, 21, 16, 3, 0, 0, [1, 1, 0, 0]>, <66, 6, 22, 16, 3, 0, 0, [1, 1, 0, 0]>, <67, 7, 23, 16, 3, 0, 0, [1, 1, 0, 0]>, <68, 8, 24, 16, 3, 0, 0, [1, 1, 0, 0]>, <69, 9, 25, 16, 3, 0, 0, [1, 1, 0, 0]>, <70, 10, 26, 16, 3, 0, 0, [1, 1, 0, 0]>, <71, 11, 27, 16, 3, 0, 0, [1, 1, 0, 0]>, <72, 12, 28, 16, 3, 0, 0, [1, 1, 0, 0]>, <73, 13, 29, 16, 3, 0, 0, [1, 1, 0, 0]>, <74, 0, 14, 14, 4, 0, 1, [0, 1, 1, 0]>, <75, 1, 15, 14, 4, 0, 1, [0, 1, 1, 0]>, <76, 2, 16, 14, 4, 0, 1, [0, 1, 1, 0]>, <77, 3, 17, 14, 4, 0, 1, [0, 1, 1, 0]>, <78, 4, 18, 14, 4, 0, 1, [0, 1, 1, 0]>, <79, 5, 19, 14, 4, 0, 1, [0, 1, 1, 0]>, <80, 6, 20, 14, 4, 0, 1, [0, 1, 1, 0]>, <81, 7, 21, 14, 4, 0, 1, [0, 1, 1, 0]>, <82, 8, 22, 14, 4, 0, 1, [0, 1, 1, 0]>, <83, 9, 23, 14, 4, 0, 1, [0, 1, 1, 0]>, <84, 10, 24, 14, 4, 0, 1, [0, 1, 1, 0]>, <85, 11, 25, 14, 4, 0, 1, [0, 1, 1, 0]>, <86, 12, 26, 14, 4, 0, 1, [0, 1, 1, 0]>, <87, 13, 27, 14, 4, 0, 1, [0, 1, 1, 0]>, <88, 14, 28, 14, 4, 0, 1, [0, 1, 1, 0]>, <89, 15, 29, 14, 4, 0, 1, [0, 1, 1, 0]>, <90, 0, 14, 14, 5, 0, 0, [1, 1, 0, 0]>, <91, 1, 15, 14, 5, 0, 0, [1, 1, 0, 0]>, <92, 2, 16, 14, 5, 0, 0, [1, 1, 0, 0]>, <93, 3, 17, 14, 5, 0, 0, [1, 1, 0, 0]>, <94, 4, 18, 14, 5, 0, 0, [1, 1, 0, 0]>, <95, 5, 19, 14, 5, 0, 0, [1, 1, 0, 0]>, <96, 6, 20, 14, 5, 0, 0, [1, 1, 0, 0]>, <97, 7, 21, 14, 5, 0, 0, [1, 1, 0, 0]>, <98, 8, 22, 14, 5, 0, 0, [1, 1, 0, 0]>, <99, 9, 23, 14, 5, 0, 0, [1, 1, 0, 0]>, <100, 10, 24, 14, 5, 0, 0, [1, 1, 0, 0]>, <101, 11, 25, 14, 5, 0, 0, [1, 1, 0, 0]>, <102, 12, 26, 14, 5, 0, 0, [1, 1, 0, 0]>, <103, 13, 27, 14, 5, 0, 0, [1, 1, 0, 0]>, <104, 14, 28, 14, 5, 0, 0, [1, 1, 0, 0]>, <105, 15, 29, 14, 5, 0, 0, [1, 1, 0, 0]>, <106, 0, 16, 16, 6, 0, 1, [1, 1, 0, 0]>, <107, 1, 17, 16, 6, 0, 1, [1, 1, 0, 0]>, <108, 2, 18, 16, 6, 0, 1, [1, 1, 0, 0]>, <109, 3, 19, 16, 6, 0, 1, [1, 1, 0, 0]>, <110, 4, 20, 16, 6, 0, 1, [1, 1, 0, 0]>, <111, 5, 21, 16, 6, 0, 1, [1, 1, 0, 0]>, <112, 6, 22, 16, 6, 0, 1, [1, 1, 0, 0]>, <113, 7, 23, 16, 6, 0, 1, [1, 1, 0, 0]>, <114, 8, 24, 16, 6, 0, 1, [1, 1, 0, 0]>, <115, 9, 25, 16, 6, 0, 1, [1, 1, 0, 0]>, <116, 10, 26, 16, 6, 0, 1, [1, 1, 0, 0]>, <117, 11, 27, 16, 6, 0, 1, [1, 1, 0, 0]>, <118, 12, 28, 16, 6, 0, 1, [1, 1, 0, 0]>, <119, 13, 29, 16, 6, 0, 1, [1, 1, 0, 0]>, <120, 0, 15, 15, 7, 1, 0, [0, 1, 1, 0]>, <121, 1, 16, 15, 7, 1, 0, [0, 1, 1, 0]>, <122, 2, 17, 15, 7, 1, 0, [0, 1, 1, 0]>, <123, 3, 18, 15, 7, 1, 0, [0, 1, 1, 0]>, <124, 4, 19, 15, 7, 1, 0, [0, 1, 1, 0]>, <125, 5, 20, 15, 7, 1, 0, [0, 1, 1, 0]>, <126, 6, 21, 15, 7, 1, 0, [0, 1, 1, 0]>, <127, 7, 22, 15, 7, 1, 0, [0, 1, 1, 0]>, <128, 8, 23, 15, 7, 1, 0, [0, 1, 1, 0]>, <129, 9, 24, 15, 7, 1, 0, [0, 1, 1, 0]>, <130, 10, 25, 15, 7, 1, 0, [0, 1, 1, 0]>, <131, 11, 26, 15, 7, 1, 0, [0, 1, 1, 0]>, <132, 12, 27, 15, 7, 1, 0, [0, 1, 1, 0]>, <133, 13, 28, 15, 7, 1, 0, [0, 1, 1, 0]>, <134, 14, 29, 15, 7, 1, 0, [0, 1, 1, 0]>};
